(set-logic SLIA)
(define-fun succ ((X Int) ) Int (+ 1 X ))
(define-fun pred ((X Int) ) Int (+ -1 X ))
(define-fun firstidx ((X String) (Y String) ) Int (str.indexof X Y 1 ))
(define-fun rpself ((X String) (Y String) (N Int) (M Int)) String (str.replace X (str.substr X N M) Y))
(synth-fun f ((name String)) String
    ((Start String (ntString))
     (ntString String (name " " 
(str.++ ntString ntString)
(str.replace ntString ntString ntString)
(str.at ntString ntInt)
(int.to.str ntInt)
(ite ntBool ntString ntString)
(str.substr ntString ntInt ntInt)
))
      (ntInt Int (0 1
(+ ntInt ntInt)
(- ntInt ntInt)
(str.len ntString)
(str.to.int ntString)
(str.indexof ntString ntString ntInt)
))
(ntBool Bool (true false
(= ntInt ntInt)
(str.prefixof ntString ntString)
(str.suffixof ntString ntString)
(str.contains ntString ntString)
))
))
(constraint (= (f "Nancy FreeHafer") "FreeHafer"))
(constraint (= (f "Andrew Cencici") "Cencici"))
(constraint (= (f "Jan Kotas") "Kotas"))
(constraint (= (f "Mariya Sergienko") "Sergienko"))

(check-synth)
(define-fun f_1 ((name String)) String (str.substr name (+ (str.indexof name " " 0) 1) (str.len name)))
